100
32
2
2
8
8
15
6
29
25
10
8
9
5
18
1
2
1
2
3
3
3
19
1
1
19
18
3
17
1
5
1
3
2
4
1
1
17
3
1
1
3
2
3
2
20
1
1
2
16
2
9
1
3
2
1
17
1
2
19
1
2
1
7
2
2
1
2
3
6
3
1
2
18
2
1
2
1
1
1
18
5
1
2
6
2
4
2
1
3
1
1
3
3
2
2
2
1
2
2
1
1